(set-info :smt-lib-version 2.6)
(set-logic UF)
(set-info :source |Benchmarks from the paper: "Extending Sledgehammer with SMT Solvers" by Jasmin Blanchette, Sascha Bohme, and Lawrence C. Paulson, CADE 2011.  Translated to SMT2 by Andrew Reynolds and Morgan Deters.|)
(set-info :category "industrial")
(set-info :status sat)
(declare-sort S1 0)
(declare-sort S2 0)
(declare-sort S3 0)
(declare-sort S4 0)
(declare-sort S5 0)
(declare-sort S6 0)
(declare-sort S7 0)
(declare-sort S8 0)
(declare-sort S9 0)
(declare-sort S10 0)
(declare-sort S11 0)
(declare-sort S12 0)
(declare-sort S13 0)
(declare-fun f1 () S1)
(declare-fun f2 () S1)
(declare-fun f3 (S2 S3) S1)
(declare-fun f4 (S4 S3) S2)
(declare-fun f5 () S4)
(declare-fun f6 () S3)
(declare-fun f7 () S3)
(declare-fun f8 () S2)
(declare-fun f9 (S5 S2) S2)
(declare-fun f10 (S6 S2) S5)
(declare-fun f11 () S6)
(declare-fun f12 () S2)
(declare-fun f13 () S5)
(declare-fun f14 () S3)
(declare-fun f15 (S7 S2) S1)
(declare-fun f16 (S8 S3) S7)
(declare-fun f17 () S8)
(declare-fun f18 () S4)
(declare-fun f19 () S3)
(declare-fun f20 (S9 S1) S1)
(declare-fun f21 (S10 S1) S9)
(declare-fun f22 () S10)
(declare-fun f23 (S11 S2) S7)
(declare-fun f24 () S11)
(declare-fun f25 (S12 S3) S3)
(declare-fun f26 () S12)
(declare-fun f27 (S13 S3) S12)
(declare-fun f28 () S13)
(declare-fun f29 () S13)
(declare-fun f30 () S11)
(declare-fun f31 () S10)
(declare-fun f32 () S1)
(assert (not (= f1 f2)))
(assert (not (= (f3 (f4 f5 f6) f7) f1)))
(assert (forall ((?v0 S3)) (=> (= (f3 f8 ?v0) f1) (= (f3 (f4 f5 ?v0) f7) f1))))
(assert (= (f3 (f9 (f10 f11 f12) (f9 f13 f8)) f6) f1))
(assert (= (f3 f8 f14) f1))
(assert (forall ((?v0 S3)) (=> (= (f3 f8 ?v0) f1) (= (f3 (f4 f5 ?v0) f7) f1))))
(assert (= (f3 (f9 (f10 f11 f12) (f9 f13 f8)) f6) f1))
(assert (exists ((?v0 S3)) (= (f15 (f16 f17 ?v0) (f9 f13 f8)) f1)))
(assert (forall ((?v0 S3)) (=> (= (f3 f8 ?v0) f1) (= (f3 (f4 f5 ?v0) f6) f1))))
(assert (= (f3 (f4 f18 f7) f6) f1))
(assert (= (f3 (f4 f5 f6) f19) f1))
(assert (forall ((?v0 S3)) (=> (= (f3 f8 ?v0) f1) (not (= (f3 (f4 f18 f7) ?v0) f1)))))
(assert (forall ((?v0 S3)) (= (f3 (f4 f5 ?v0) ?v0) f1)))
(assert (forall ((?v0 S1)) (= (f20 (f21 f22 ?v0) ?v0) f1)))
(assert (forall ((?v0 S2)) (= (f15 (f23 f24 ?v0) ?v0) f1)))
(assert (forall ((?v0 S3)) (let ((?v_0 (f4 f18 f7))) (=> (= (f3 f8 ?v0) f1) (=> (= (f3 ?v_0 ?v0) f1) (= (f3 ?v_0 f6) f1))))))
(assert (forall ((?v0 S3)) (=> (= (f3 f8 ?v0) f1) (= (f3 (f4 f5 ?v0) f19) f1))))
(assert (forall ((?v0 S3)) (= (f3 (f4 f5 ?v0) ?v0) f1)))
(assert (forall ((?v0 S3) (?v1 S3)) (or (= (f3 (f4 f5 ?v0) ?v1) f1) (= (f3 (f4 f5 ?v1) ?v0) f1))))
(assert (forall ((?v0 S3) (?v1 S3) (?v2 S3)) (let ((?v_0 (f4 f5 ?v0))) (=> (= (f3 ?v_0 ?v1) f1) (=> (= (f3 (f4 f5 ?v1) ?v2) f1) (= (f3 ?v_0 ?v2) f1))))))
(assert (forall ((?v0 S3) (?v1 S3)) (=> (= (f3 (f4 f5 ?v0) ?v1) f1) (=> (= (f3 (f4 f5 ?v1) ?v0) f1) (= ?v0 ?v1)))))
(assert (forall ((?v0 S3)) (= (f3 (f4 f5 ?v0) (f25 f26 ?v0)) f1)))
(assert (forall ((?v0 S3) (?v1 S3)) (= (f3 (f4 f5 ?v0) (f25 (f27 f28 ?v0) ?v1)) f1)))
(assert (forall ((?v0 S3) (?v1 S3)) (= (f3 (f4 f5 ?v0) (f25 (f27 f28 ?v1) ?v0)) f1)))
(assert (forall ((?v0 S3) (?v1 S3)) (= (f3 (f4 f5 (f25 (f27 f29 ?v0) ?v1)) ?v0) f1)))
(assert (exists ((?v0 S3)) (= (f3 f8 ?v0) f1)))
(assert (exists ((?v0 S3)) (forall ((?v1 S3)) (=> (= (f3 f8 ?v1) f1) (= (f3 (f4 f18 ?v1) ?v0) f1)))))
(assert (forall ((?v0 S3)) (=> (= (f3 f8 ?v0) f1) (= (f3 (f4 f18 ?v0) f19) f1))))
(assert (= (f3 (f4 f18 f14) f19) f1))
(assert (=> (forall ((?v0 S3)) (=> (= (f3 (f9 (f10 f11 f12) (f9 f13 f8)) ?v0) f1) false)) false))
(assert (exists ((?v0 S3)) (= (f3 (f9 (f10 f11 f12) (f9 f13 f8)) ?v0) f1)))
(assert (=> (forall ((?v0 S3) (?v1 S3)) (=> (= (f3 f8 ?v0) f1) (=> (forall ((?v2 S3)) (=> (= (f3 f8 ?v2) f1) (= (f3 (f4 f18 ?v2) ?v1) f1))) false))) false))
(assert (forall ((?v0 S2)) (not (= (f15 (f23 f30 f12) ?v0) f1))))
(assert (forall ((?v0 S1)) (not (= (f20 (f21 f31 f32) ?v0) f1))))
(assert (forall ((?v0 S3)) (not (= (f3 (f4 f18 ?v0) ?v0) f1))))
(assert (forall ((?v0 S1)) (not (= (f20 (f21 f31 ?v0) ?v0) f1))))
(assert (forall ((?v0 S2)) (not (= (f15 (f23 f30 ?v0) ?v0) f1))))
(assert (forall ((?v0 S3)) (= (= (f3 f12 ?v0) f1) (= f32 f1))))
(assert (forall ((?v0 S2)) (= (not (= ?v0 f12)) (= (f15 (f23 f30 ?v0) f12) f1))))
(assert (forall ((?v0 S1)) (= (not (= (= ?v0 f1) (= f32 f1))) (= (f20 (f21 f31 ?v0) f32) f1))))
(assert (forall ((?v0 S3) (?v1 S3)) (= (not (= ?v0 ?v1)) (or (= (f3 (f4 f18 ?v0) ?v1) f1) (= (f3 (f4 f18 ?v1) ?v0) f1)))))
(assert (forall ((?v0 S3) (?v1 S3)) (= (not (= (f3 (f4 f18 ?v0) ?v1) f1)) (or (= (f3 (f4 f18 ?v1) ?v0) f1) (= ?v0 ?v1)))))
(assert (forall ((?v0 S3) (?v1 S3)) (or (= (f3 (f4 f18 ?v0) ?v1) f1) (or (= ?v0 ?v1) (= (f3 (f4 f18 ?v1) ?v0) f1)))))
(assert (forall ((?v0 S3) (?v1 S3) (?v2 S3)) (let ((?v_0 (f4 f18 ?v0))) (= (= (f3 ?v_0 (f25 (f27 f28 ?v1) ?v2)) f1) (or (= (f3 ?v_0 ?v1) f1) (= (f3 ?v_0 ?v2) f1))))))
(assert (forall ((?v0 S3) (?v1 S3) (?v2 S3)) (let ((?v_0 (f4 f18 ?v0))) (= (= (f3 ?v_0 (f25 (f27 f29 ?v1) ?v2)) f1) (and (= (f3 ?v_0 ?v1) f1) (= (f3 ?v_0 ?v2) f1))))))
(assert (forall ((?v0 S3) (?v1 S3) (?v2 S3)) (= (= (f3 (f4 f18 (f25 (f27 f28 ?v0) ?v1)) ?v2) f1) (and (= (f3 (f4 f18 ?v0) ?v2) f1) (= (f3 (f4 f18 ?v1) ?v2) f1)))))
(assert (forall ((?v0 S3) (?v1 S3) (?v2 S3)) (= (= (f3 (f4 f18 (f25 (f27 f29 ?v0) ?v1)) ?v2) f1) (or (= (f3 (f4 f18 ?v0) ?v2) f1) (= (f3 (f4 f18 ?v1) ?v2) f1)))))
(assert (forall ((?v0 S3) (?v1 S3)) (=> (not (= (f3 (f4 f18 ?v0) ?v1) f1)) (= (not (= (f3 (f4 f18 ?v1) ?v0) f1)) (= ?v1 ?v0)))))
(assert (forall ((?v0 S3) (?v1 S3)) (=> (not (= ?v0 ?v1)) (=> (=> (= (f3 (f4 f18 ?v0) ?v1) f1) false) (=> (=> (= (f3 (f4 f18 ?v1) ?v0) f1) false) false)))))
(assert (forall ((?v0 S3) (?v1 S3)) (=> (= (f3 (f4 f18 ?v0) ?v1) f1) (not (= ?v0 ?v1)))))
(assert (forall ((?v0 S1) (?v1 S1)) (=> (= (f20 (f21 f31 ?v0) ?v1) f1) (not (= (= ?v0 f1) (= ?v1 f1))))))
(assert (forall ((?v0 S2) (?v1 S2)) (=> (= (f15 (f23 f30 ?v0) ?v1) f1) (not (= ?v0 ?v1)))))
(assert (forall ((?v0 S3) (?v1 S3)) (=> (= (f3 (f4 f18 ?v0) ?v1) f1) (not (= (f3 (f4 f18 ?v1) ?v0) f1)))))
(assert (forall ((?v0 S1) (?v1 S1)) (=> (= (f20 (f21 f31 ?v0) ?v1) f1) (not (= (f20 (f21 f31 ?v1) ?v0) f1)))))
(assert (forall ((?v0 S2) (?v1 S2)) (=> (= (f15 (f23 f30 ?v0) ?v1) f1) (not (= (f15 (f23 f30 ?v1) ?v0) f1)))))
(assert (forall ((?v0 S3) (?v1 S3) (?v2 S3)) (let ((?v_0 (f4 f18 ?v0))) (=> (= (f3 ?v_0 ?v1) f1) (= (f3 ?v_0 (f25 (f27 f28 ?v1) ?v2)) f1)))))
(assert (forall ((?v0 S3) (?v1 S3) (?v2 S3)) (let ((?v_0 (f4 f18 ?v0))) (=> (= (f3 ?v_0 ?v1) f1) (= (f3 ?v_0 (f25 (f27 f28 ?v2) ?v1)) f1)))))
(assert (forall ((?v0 S3) (?v1 S3)) (=> (= (f3 (f4 f18 ?v0) ?v1) f1) (= (not (= (f3 (f4 f18 ?v1) ?v0) f1)) true))))
(assert (forall ((?v0 S1) (?v1 S1)) (=> (= (f20 (f21 f31 ?v0) ?v1) f1) (= (not (= (f20 (f21 f31 ?v1) ?v0) f1)) true))))
(assert (forall ((?v0 S2) (?v1 S2)) (=> (= (f15 (f23 f30 ?v0) ?v1) f1) (= (not (= (f15 (f23 f30 ?v1) ?v0) f1)) true))))
(assert (forall ((?v0 S3) (?v1 S3)) (=> (= (f3 (f4 f18 ?v0) ?v1) f1) (= (= ?v0 ?v1) false))))
(assert (forall ((?v0 S1) (?v1 S1)) (=> (= (f20 (f21 f31 ?v0) ?v1) f1) (= (= (= ?v0 f1) (= ?v1 f1)) false))))
(assert (forall ((?v0 S2) (?v1 S2)) (=> (= (f15 (f23 f30 ?v0) ?v1) f1) (= (= ?v0 ?v1) false))))
(assert (forall ((?v0 S3) (?v1 S3)) (=> (= (f3 (f4 f18 ?v0) ?v1) f1) (= (= ?v1 ?v0) false))))
(assert (forall ((?v0 S1) (?v1 S1)) (=> (= (f20 (f21 f31 ?v0) ?v1) f1) (= (= (= ?v1 f1) (= ?v0 f1)) false))))
(assert (forall ((?v0 S2) (?v1 S2)) (=> (= (f15 (f23 f30 ?v0) ?v1) f1) (= (= ?v1 ?v0) false))))
(assert (forall ((?v0 S3) (?v1 S3) (?v2 S3)) (=> (= (f3 (f4 f18 ?v0) ?v1) f1) (= (f3 (f4 f18 (f25 (f27 f29 ?v0) ?v2)) ?v1) f1))))
(assert (forall ((?v0 S3) (?v1 S3) (?v2 S3)) (=> (= (f3 (f4 f18 ?v0) ?v1) f1) (= (f3 (f4 f18 (f25 (f27 f29 ?v2) ?v0)) ?v1) f1))))
(assert (forall ((?v0 S3) (?v1 S3) (?v2 S1)) (=> (= (f3 (f4 f18 ?v0) ?v1) f1) (= (=> (= (f3 (f4 f18 ?v1) ?v0) f1) (= ?v2 f1)) true))))
(assert (forall ((?v0 S1) (?v1 S1) (?v2 S1)) (=> (= (f20 (f21 f31 ?v0) ?v1) f1) (= (=> (= (f20 (f21 f31 ?v1) ?v0) f1) (= ?v2 f1)) true))))
(assert (forall ((?v0 S2) (?v1 S2) (?v2 S1)) (=> (= (f15 (f23 f30 ?v0) ?v1) f1) (= (=> (= (f15 (f23 f30 ?v1) ?v0) f1) (= ?v2 f1)) true))))
(assert (forall ((?v0 S3) (?v1 S3)) (=> (= (f3 (f4 f18 ?v0) ?v1) f1) (=> (= (f3 (f4 f18 ?v1) ?v0) f1) false))))
(assert (forall ((?v0 S1) (?v1 S1)) (=> (= (f20 (f21 f31 ?v0) ?v1) f1) (=> (= (f20 (f21 f31 ?v1) ?v0) f1) false))))
(assert (forall ((?v0 S2) (?v1 S2)) (=> (= (f15 (f23 f30 ?v0) ?v1) f1) (=> (= (f15 (f23 f30 ?v1) ?v0) f1) false))))
(assert (forall ((?v0 S3) (?v1 S3)) (=> (= (f3 (f4 f18 ?v0) ?v1) f1) (=> (= (f3 (f4 f18 ?v1) ?v0) f1) false))))
(assert (forall ((?v0 S1) (?v1 S1)) (=> (= (f20 (f21 f31 ?v0) ?v1) f1) (=> (= (f20 (f21 f31 ?v1) ?v0) f1) false))))
(assert (forall ((?v0 S2) (?v1 S2)) (=> (= (f15 (f23 f30 ?v0) ?v1) f1) (=> (= (f15 (f23 f30 ?v1) ?v0) f1) false))))
(assert (forall ((?v0 S3) (?v1 S3) (?v2 S3)) (=> (= ?v0 ?v1) (=> (= (f3 (f4 f18 ?v1) ?v2) f1) (= (f3 (f4 f18 ?v0) ?v2) f1)))))
(assert (forall ((?v0 S1) (?v1 S1) (?v2 S1)) (=> (= (= ?v0 f1) (= ?v1 f1)) (=> (= (f20 (f21 f31 ?v1) ?v2) f1) (= (f20 (f21 f31 ?v0) ?v2) f1)))))
(assert (forall ((?v0 S2) (?v1 S2) (?v2 S2)) (=> (= ?v0 ?v1) (=> (= (f15 (f23 f30 ?v1) ?v2) f1) (= (f15 (f23 f30 ?v0) ?v2) f1)))))
(assert (forall ((?v0 S3) (?v1 S3) (?v2 S3)) (let ((?v_0 (f4 f18 ?v2))) (=> (= ?v0 ?v1) (=> (= (f3 ?v_0 ?v1) f1) (= (f3 ?v_0 ?v0) f1))))))
(assert (forall ((?v0 S1) (?v1 S1) (?v2 S1)) (let ((?v_0 (f21 f31 ?v2))) (=> (= (= ?v0 f1) (= ?v1 f1)) (=> (= (f20 ?v_0 ?v1) f1) (= (f20 ?v_0 ?v0) f1))))))
(assert (forall ((?v0 S2) (?v1 S2) (?v2 S2)) (let ((?v_0 (f23 f30 ?v2))) (=> (= ?v0 ?v1) (=> (= (f15 ?v_0 ?v1) f1) (= (f15 ?v_0 ?v0) f1))))))
(assert (forall ((?v0 S3) (?v1 S3) (?v2 S3)) (let ((?v_0 (f4 f18 ?v0))) (=> (= (f3 ?v_0 ?v1) f1) (=> (= ?v1 ?v2) (= (f3 ?v_0 ?v2) f1))))))
(assert (forall ((?v0 S1) (?v1 S1) (?v2 S1)) (let ((?v_0 (f21 f31 ?v0))) (=> (= (f20 ?v_0 ?v1) f1) (=> (= (= ?v1 f1) (= ?v2 f1)) (= (f20 ?v_0 ?v2) f1))))))
(assert (forall ((?v0 S2) (?v1 S2) (?v2 S2)) (let ((?v_0 (f23 f30 ?v0))) (=> (= (f15 ?v_0 ?v1) f1) (=> (= ?v1 ?v2) (= (f15 ?v_0 ?v2) f1))))))
(assert (forall ((?v0 S3) (?v1 S3) (?v2 S3)) (=> (= (f3 (f4 f18 ?v0) ?v1) f1) (=> (= ?v0 ?v2) (= (f3 (f4 f18 ?v2) ?v1) f1)))))
(assert (forall ((?v0 S1) (?v1 S1) (?v2 S1)) (=> (= (f20 (f21 f31 ?v0) ?v1) f1) (=> (= (= ?v0 f1) (= ?v2 f1)) (= (f20 (f21 f31 ?v2) ?v1) f1)))))
(assert (forall ((?v0 S2) (?v1 S2) (?v2 S2)) (=> (= (f15 (f23 f30 ?v0) ?v1) f1) (=> (= ?v0 ?v2) (= (f15 (f23 f30 ?v2) ?v1) f1)))))
(assert (forall ((?v0 S3) (?v1 S3) (?v2 S3)) (let ((?v_0 (f4 f18 ?v0))) (=> (= (f3 ?v_0 ?v1) f1) (=> (= (f3 (f4 f18 ?v1) ?v2) f1) (= (f3 ?v_0 ?v2) f1))))))
(assert (forall ((?v0 S1) (?v1 S1) (?v2 S1)) (let ((?v_0 (f21 f31 ?v0))) (=> (= (f20 ?v_0 ?v1) f1) (=> (= (f20 (f21 f31 ?v1) ?v2) f1) (= (f20 ?v_0 ?v2) f1))))))
(assert (forall ((?v0 S2) (?v1 S2) (?v2 S2)) (let ((?v_0 (f23 f30 ?v0))) (=> (= (f15 ?v_0 ?v1) f1) (=> (= (f15 (f23 f30 ?v1) ?v2) f1) (= (f15 ?v_0 ?v2) f1))))))
(assert (forall ((?v0 S3) (?v1 S3) (?v2 S3)) (let ((?v_0 (f4 f18 ?v2))) (=> (= (f3 (f4 f18 ?v0) ?v1) f1) (=> (= (f3 ?v_0 ?v0) f1) (= (f3 ?v_0 ?v1) f1))))))
(assert (forall ((?v0 S1) (?v1 S1) (?v2 S1)) (let ((?v_0 (f21 f31 ?v2))) (=> (= (f20 (f21 f31 ?v0) ?v1) f1) (=> (= (f20 ?v_0 ?v0) f1) (= (f20 ?v_0 ?v1) f1))))))
(assert (forall ((?v0 S2) (?v1 S2) (?v2 S2)) (let ((?v_0 (f23 f30 ?v2))) (=> (= (f15 (f23 f30 ?v0) ?v1) f1) (=> (= (f15 ?v_0 ?v0) f1) (= (f15 ?v_0 ?v1) f1))))))
(assert (forall ((?v0 S3) (?v1 S3)) (=> (= (f3 (f4 f18 ?v0) ?v1) f1) (=> (=> (not false) (= (f3 (f4 f18 ?v1) ?v0) f1)) false))))
(assert (forall ((?v0 S1) (?v1 S1)) (=> (= (f20 (f21 f31 ?v0) ?v1) f1) (=> (=> (not false) (= (f20 (f21 f31 ?v1) ?v0) f1)) false))))
(assert (forall ((?v0 S2) (?v1 S2)) (=> (= (f15 (f23 f30 ?v0) ?v1) f1) (=> (=> (not false) (= (f15 (f23 f30 ?v1) ?v0) f1)) false))))
(assert (forall ((?v0 S3) (?v1 S3)) (=> (=> (= (f3 (f4 f18 ?v0) ?v1) f1) false) (=> (=> (= ?v0 ?v1) false) (=> (=> (= (f3 (f4 f18 ?v1) ?v0) f1) false) false)))))
(assert (forall ((?v0 S3) (?v1 S3) (?v2 S3)) (let ((?v_0 (f4 f18 ?v2))) (=> (= (f3 (f4 f5 ?v0) ?v1) f1) (=> (= (f3 ?v_0 ?v0) f1) (= (f3 ?v_0 ?v1) f1))))))
(assert (forall ((?v0 S1) (?v1 S1) (?v2 S1)) (let ((?v_0 (f21 f31 ?v2))) (=> (= (f20 (f21 f22 ?v0) ?v1) f1) (=> (= (f20 ?v_0 ?v0) f1) (= (f20 ?v_0 ?v1) f1))))))
(assert (forall ((?v0 S2) (?v1 S2) (?v2 S2)) (let ((?v_0 (f23 f30 ?v2))) (=> (= (f15 (f23 f24 ?v0) ?v1) f1) (=> (= (f15 ?v_0 ?v0) f1) (= (f15 ?v_0 ?v1) f1))))))
(assert (forall ((?v0 S3) (?v1 S3) (?v2 S3)) (=> (= (f3 (f4 f5 ?v0) ?v1) f1) (=> (= (f3 (f4 f18 ?v1) ?v2) f1) (= (f3 (f4 f18 ?v0) ?v2) f1)))))
(assert (forall ((?v0 S1) (?v1 S1) (?v2 S1)) (=> (= (f20 (f21 f22 ?v0) ?v1) f1) (=> (= (f20 (f21 f31 ?v1) ?v2) f1) (= (f20 (f21 f31 ?v0) ?v2) f1)))))
(assert (forall ((?v0 S2) (?v1 S2) (?v2 S2)) (=> (= (f15 (f23 f24 ?v0) ?v1) f1) (=> (= (f15 (f23 f30 ?v1) ?v2) f1) (= (f15 (f23 f30 ?v0) ?v2) f1)))))
(assert (forall ((?v0 S3) (?v1 S3) (?v2 S3)) (=> (= (f3 (f4 f18 ?v0) ?v1) f1) (=> (= (f3 (f4 f5 ?v2) ?v0) f1) (= (f3 (f4 f18 ?v2) ?v1) f1)))))
(assert (forall ((?v0 S1) (?v1 S1) (?v2 S1)) (=> (= (f20 (f21 f31 ?v0) ?v1) f1) (=> (= (f20 (f21 f22 ?v2) ?v0) f1) (= (f20 (f21 f31 ?v2) ?v1) f1)))))
(assert (forall ((?v0 S2) (?v1 S2) (?v2 S2)) (=> (= (f15 (f23 f30 ?v0) ?v1) f1) (=> (= (f15 (f23 f24 ?v2) ?v0) f1) (= (f15 (f23 f30 ?v2) ?v1) f1)))))
(assert (forall ((?v0 S3) (?v1 S3) (?v2 S3)) (let ((?v_0 (f4 f18 ?v0))) (=> (= (f3 ?v_0 ?v1) f1) (=> (= (f3 (f4 f5 ?v1) ?v2) f1) (= (f3 ?v_0 ?v2) f1))))))
(assert (forall ((?v0 S1) (?v1 S1) (?v2 S1)) (let ((?v_0 (f21 f31 ?v0))) (=> (= (f20 ?v_0 ?v1) f1) (=> (= (f20 (f21 f22 ?v1) ?v2) f1) (= (f20 ?v_0 ?v2) f1))))))
(assert (forall ((?v0 S2) (?v1 S2) (?v2 S2)) (let ((?v_0 (f23 f30 ?v0))) (=> (= (f15 ?v_0 ?v1) f1) (=> (= (f15 (f23 f24 ?v1) ?v2) f1) (= (f15 ?v_0 ?v2) f1))))))
(assert (forall ((?v0 S3) (?v1 S3)) (=> (= (f3 (f4 f5 ?v0) ?v1) f1) (=> (not (= ?v1 ?v0)) (= (f3 (f4 f18 ?v0) ?v1) f1)))))
(assert (forall ((?v0 S1) (?v1 S1)) (=> (= (f20 (f21 f22 ?v0) ?v1) f1) (=> (not (= (= ?v1 f1) (= ?v0 f1))) (= (f20 (f21 f31 ?v0) ?v1) f1)))))
(assert (forall ((?v0 S2) (?v1 S2)) (=> (= (f15 (f23 f24 ?v0) ?v1) f1) (=> (not (= ?v1 ?v0)) (= (f15 (f23 f30 ?v0) ?v1) f1)))))
(assert (forall ((?v0 S3) (?v1 S3)) (=> (= (f3 (f4 f5 ?v0) ?v1) f1) (=> (not (= ?v0 ?v1)) (= (f3 (f4 f18 ?v0) ?v1) f1)))))
(assert (forall ((?v0 S1) (?v1 S1)) (=> (= (f20 (f21 f22 ?v0) ?v1) f1) (=> (not (= (= ?v0 f1) (= ?v1 f1))) (= (f20 (f21 f31 ?v0) ?v1) f1)))))
(assert (forall ((?v0 S2) (?v1 S2)) (=> (= (f15 (f23 f24 ?v0) ?v1) f1) (=> (not (= ?v0 ?v1)) (= (f15 (f23 f30 ?v0) ?v1) f1)))))
(assert (forall ((?v0 S3) (?v1 S3)) (=> (= (f3 (f4 f5 ?v0) ?v1) f1) (or (= (f3 (f4 f18 ?v0) ?v1) f1) (= ?v0 ?v1)))))
(assert (forall ((?v0 S1) (?v1 S1)) (=> (= (f20 (f21 f22 ?v0) ?v1) f1) (or (= (f20 (f21 f31 ?v0) ?v1) f1) (= (= ?v0 f1) (= ?v1 f1))))))
(assert (forall ((?v0 S2) (?v1 S2)) (=> (= (f15 (f23 f24 ?v0) ?v1) f1) (or (= (f15 (f23 f30 ?v0) ?v1) f1) (= ?v0 ?v1)))))
(assert (forall ((?v0 S3) (?v1 S3)) (=> (= (f3 (f4 f5 ?v0) ?v1) f1) (= (not (= (f3 (f4 f18 ?v0) ?v1) f1)) (= ?v0 ?v1)))))
(assert (forall ((?v0 S3) (?v1 S3)) (=> (= (f3 (f4 f18 ?v0) ?v1) f1) (= (f3 (f4 f5 ?v0) ?v1) f1))))
(assert (forall ((?v0 S1) (?v1 S1)) (=> (= (f20 (f21 f31 ?v0) ?v1) f1) (= (f20 (f21 f22 ?v0) ?v1) f1))))
(assert (forall ((?v0 S2) (?v1 S2)) (=> (= (f15 (f23 f30 ?v0) ?v1) f1) (= (f15 (f23 f24 ?v0) ?v1) f1))))
(assert (forall ((?v0 S3) (?v1 S3)) (=> (= (f3 (f4 f5 ?v0) ?v1) f1) (not (= (f3 (f4 f18 ?v1) ?v0) f1)))))
(assert (forall ((?v0 S3) (?v1 S3)) (=> (not (= ?v0 ?v1)) (=> (= (f3 (f4 f5 ?v1) ?v0) f1) (= (f3 (f4 f18 ?v1) ?v0) f1)))))
(assert (forall ((?v0 S1) (?v1 S1)) (=> (not (= (= ?v0 f1) (= ?v1 f1))) (=> (= (f20 (f21 f22 ?v1) ?v0) f1) (= (f20 (f21 f31 ?v1) ?v0) f1)))))
(assert (forall ((?v0 S2) (?v1 S2)) (=> (not (= ?v0 ?v1)) (=> (= (f15 (f23 f24 ?v1) ?v0) f1) (= (f15 (f23 f30 ?v1) ?v0) f1)))))
(assert (forall ((?v0 S3) (?v1 S3)) (=> (not (= ?v0 ?v1)) (=> (= (f3 (f4 f5 ?v0) ?v1) f1) (= (f3 (f4 f18 ?v0) ?v1) f1)))))
(assert (forall ((?v0 S1) (?v1 S1)) (=> (not (= (= ?v0 f1) (= ?v1 f1))) (=> (= (f20 (f21 f22 ?v0) ?v1) f1) (= (f20 (f21 f31 ?v0) ?v1) f1)))))
(assert (forall ((?v0 S2) (?v1 S2)) (=> (not (= ?v0 ?v1)) (=> (= (f15 (f23 f24 ?v0) ?v1) f1) (= (f15 (f23 f30 ?v0) ?v1) f1)))))
(assert (forall ((?v0 S3) (?v1 S3)) (=> (not (= (f3 (f4 f18 ?v0) ?v1) f1)) (= (= (f3 (f4 f5 ?v0) ?v1) f1) (= ?v0 ?v1)))))
(assert (forall ((?v0 S3) (?v1 S3)) (=> (not (= (f3 (f4 f5 ?v0) ?v1) f1)) (= (f3 (f4 f18 ?v1) ?v0) f1))))
(assert (forall ((?v0 S3) (?v1 S3)) (=> (not (= (f3 (f4 f18 ?v0) ?v1) f1)) (= (f3 (f4 f5 ?v1) ?v0) f1))))
(assert (forall ((?v0 S3) (?v1 S3)) (= (= (f3 (f4 f5 ?v0) ?v1) f1) (or (= (f3 (f4 f18 ?v0) ?v1) f1) (= ?v0 ?v1)))))
(assert (forall ((?v0 S1) (?v1 S1)) (= (= (f20 (f21 f22 ?v0) ?v1) f1) (or (= (f20 (f21 f31 ?v0) ?v1) f1) (= (= ?v0 f1) (= ?v1 f1))))))
(assert (forall ((?v0 S2) (?v1 S2)) (= (= (f15 (f23 f24 ?v0) ?v1) f1) (or (= (f15 (f23 f30 ?v0) ?v1) f1) (= ?v0 ?v1)))))
(assert (forall ((?v0 S3) (?v1 S2)) (= (= (f15 (f16 f17 ?v0) ?v1) f1) (= (f3 ?v1 ?v0) f1))))
(assert (forall ((?v0 S2)) (= (f9 f13 ?v0) ?v0)))
(assert (forall ((?v0 S3) (?v1 S3)) (= (= (f3 (f4 f18 ?v0) ?v1) f1) (and (= (f3 (f4 f5 ?v0) ?v1) f1) (not (= (f3 (f4 f5 ?v1) ?v0) f1))))))
(assert (forall ((?v0 S1) (?v1 S1)) (= (= (f20 (f21 f31 ?v0) ?v1) f1) (and (= (f20 (f21 f22 ?v0) ?v1) f1) (not (= (f20 (f21 f22 ?v1) ?v0) f1))))))
(assert (forall ((?v0 S2) (?v1 S2)) (= (= (f15 (f23 f30 ?v0) ?v1) f1) (and (= (f15 (f23 f24 ?v0) ?v1) f1) (not (= (f15 (f23 f24 ?v1) ?v0) f1))))))
(assert (forall ((?v0 S3) (?v1 S3)) (= (= (f3 (f4 f18 ?v0) ?v1) f1) (and (= (f3 (f4 f5 ?v0) ?v1) f1) (not (= ?v0 ?v1))))))
(assert (forall ((?v0 S1) (?v1 S1)) (= (= (f20 (f21 f31 ?v0) ?v1) f1) (and (= (f20 (f21 f22 ?v0) ?v1) f1) (not (= (= ?v0 f1) (= ?v1 f1)))))))
(assert (forall ((?v0 S2) (?v1 S2)) (= (= (f15 (f23 f30 ?v0) ?v1) f1) (and (= (f15 (f23 f24 ?v0) ?v1) f1) (not (= ?v0 ?v1))))))
(assert (forall ((?v0 S3) (?v1 S3)) (or (= (f3 (f4 f5 ?v0) ?v1) f1) (= (f3 (f4 f18 ?v1) ?v0) f1))))
(assert (forall ((?v0 S3) (?v1 S3)) (= (not (= (f3 (f4 f5 ?v0) ?v1) f1)) (= (f3 (f4 f18 ?v1) ?v0) f1))))
(assert (forall ((?v0 S3) (?v1 S3)) (= (not (= (f3 (f4 f18 ?v0) ?v1) f1)) (= (f3 (f4 f5 ?v1) ?v0) f1))))
(assert (forall ((?v0 S3) (?v1 S3)) (= (= (f3 (f4 f5 ?v0) ?v1) f1) (or (= (f3 (f4 f18 ?v0) ?v1) f1) (= ?v0 ?v1)))))
(assert (forall ((?v0 S3) (?v1 S3)) (= (= (f3 (f4 f18 ?v0) ?v1) f1) (and (= (f3 (f4 f5 ?v0) ?v1) f1) (not (= ?v0 ?v1))))))
(assert (forall ((?v0 S2)) (=> (= (f15 (f23 f24 f12) ?v0) f1) (= ?v0 f12))))
(assert (forall ((?v0 S1)) (=> (= (f20 (f21 f22 f32) ?v0) f1) (= (= ?v0 f1) (= f32 f1)))))
(assert (forall ((?v0 S2)) (= (= (f15 (f23 f24 f12) ?v0) f1) (= ?v0 f12))))
(assert (forall ((?v0 S1)) (= (= (f20 (f21 f22 f32) ?v0) f1) (= (= ?v0 f1) (= f32 f1)))))
(assert (forall ((?v0 S2)) (= (f15 (f23 f24 ?v0) f12) f1)))
(assert (forall ((?v0 S1)) (= (f20 (f21 f22 ?v0) f32) f1)))
(assert (forall ((?v0 S3) (?v1 S3)) (=> (=> (= (f3 (f4 f5 ?v0) ?v1) f1) false) (=> (=> (= (f3 (f4 f5 ?v1) ?v0) f1) false) false))))
(assert (forall ((?v0 S3) (?v1 S3) (?v2 S3)) (=> (= (f3 (f4 f5 (f25 (f27 f28 ?v0) ?v1)) ?v2) f1) (=> (=> (= (f3 (f4 f5 ?v0) ?v2) f1) (=> (= (f3 (f4 f5 ?v1) ?v2) f1) false)) false))))
(assert (forall ((?v0 S3) (?v1 S3)) (=> (= (f3 (f4 f5 (f25 f26 ?v0)) ?v1) f1) (= (f3 (f4 f5 ?v0) ?v1) f1))))
(assert (forall ((?v0 S3) (?v1 S3) (?v2 S3)) (let ((?v_0 (f4 f5 ?v0))) (=> (= (f3 ?v_0 (f25 (f27 f29 ?v1) ?v2)) f1) (=> (=> (= (f3 ?v_0 ?v1) f1) (=> (= (f3 ?v_0 ?v2) f1) false)) false)))))
(assert (forall ((?v0 S2) (?v1 S2) (?v2 S3)) (=> (= (f15 (f23 f24 ?v0) ?v1) f1) (=> (=> (= (f20 (f21 f22 (f3 ?v0 ?v2)) (f3 ?v1 ?v2)) f1) false) false))))
(assert (forall ((?v0 S3) (?v1 S3) (?v2 S3) (?v3 S3)) (=> (= (f3 (f4 f5 ?v0) ?v1) f1) (=> (= (f3 (f4 f5 ?v2) ?v3) f1) (= (f3 (f4 f5 (f25 (f27 f29 ?v0) ?v2)) (f25 (f27 f29 ?v1) ?v3)) f1)))))
(assert (forall ((?v0 S3) (?v1 S3) (?v2 S3) (?v3 S3)) (=> (= (f3 (f4 f5 ?v0) ?v1) f1) (=> (= (f3 (f4 f5 ?v2) ?v3) f1) (= (f3 (f4 f5 (f25 (f27 f28 ?v0) ?v2)) (f25 (f27 f28 ?v1) ?v3)) f1)))))
(assert (forall ((?v0 S3) (?v1 S3) (?v2 S3)) (=> (= (f3 (f4 f5 ?v0) ?v1) f1) (=> (= (f3 (f4 f5 ?v2) ?v1) f1) (= (f3 (f4 f5 (f25 (f27 f28 ?v0) ?v2)) ?v1) f1)))))
(assert (forall ((?v0 S3) (?v1 S3) (?v2 S3)) (=> (= (f3 (f4 f5 ?v0) ?v1) f1) (=> (= (f3 (f4 f5 ?v2) ?v1) f1) (= (f3 (f4 f5 (f25 (f27 f28 ?v0) ?v2)) ?v1) f1)))))
(assert (forall ((?v0 S3) (?v1 S3) (?v2 S3)) (let ((?v_0 (f4 f5 ?v0))) (=> (= (f3 ?v_0 ?v1) f1) (=> (= (f3 ?v_0 ?v2) f1) (= (f3 ?v_0 (f25 (f27 f29 ?v1) ?v2)) f1))))))
(assert (forall ((?v0 S3) (?v1 S3) (?v2 S3)) (let ((?v_0 (f4 f5 ?v0))) (=> (= (f3 ?v_0 ?v1) f1) (=> (= (f3 ?v_0 ?v2) f1) (= (f3 ?v_0 (f25 (f27 f29 ?v1) ?v2)) f1))))))
(assert (forall ((?v0 S3) (?v1 S3) (?v2 S3)) (let ((?v_0 (f4 f5 ?v2))) (=> (= (f3 (f4 f5 ?v0) ?v1) f1) (=> (= (f3 ?v_0 ?v0) f1) (= (f3 ?v_0 ?v1) f1))))))
(assert (forall ((?v0 S1) (?v1 S1) (?v2 S1)) (let ((?v_0 (f21 f22 ?v2))) (=> (= (f20 (f21 f22 ?v0) ?v1) f1) (=> (= (f20 ?v_0 ?v0) f1) (= (f20 ?v_0 ?v1) f1))))))
(assert (forall ((?v0 S2) (?v1 S2) (?v2 S2)) (let ((?v_0 (f23 f24 ?v2))) (=> (= (f15 (f23 f24 ?v0) ?v1) f1) (=> (= (f15 ?v_0 ?v0) f1) (= (f15 ?v_0 ?v1) f1))))))
(assert (forall ((?v0 S3) (?v1 S3)) (=> (= (f3 (f4 f5 ?v0) ?v1) f1) (=> (= (f3 (f4 f5 ?v1) ?v0) f1) (= ?v1 ?v0)))))
(assert (forall ((?v0 S1) (?v1 S1)) (=> (= (f20 (f21 f22 ?v0) ?v1) f1) (=> (= (f20 (f21 f22 ?v1) ?v0) f1) (= (= ?v1 f1) (= ?v0 f1))))))
(assert (forall ((?v0 S2) (?v1 S2)) (=> (= (f15 (f23 f24 ?v0) ?v1) f1) (=> (= (f15 (f23 f24 ?v1) ?v0) f1) (= ?v1 ?v0)))))
(assert (forall ((?v0 S3) (?v1 S3) (?v2 S3)) (let ((?v_0 (f4 f5 ?v0))) (=> (= (f3 ?v_0 ?v1) f1) (=> (= (f3 (f4 f5 ?v1) ?v2) f1) (= (f3 ?v_0 ?v2) f1))))))
(assert (forall ((?v0 S1) (?v1 S1) (?v2 S1)) (let ((?v_0 (f21 f22 ?v0))) (=> (= (f20 ?v_0 ?v1) f1) (=> (= (f20 (f21 f22 ?v1) ?v2) f1) (= (f20 ?v_0 ?v2) f1))))))
(assert (forall ((?v0 S2) (?v1 S2) (?v2 S2)) (let ((?v_0 (f23 f24 ?v0))) (=> (= (f15 ?v_0 ?v1) f1) (=> (= (f15 (f23 f24 ?v1) ?v2) f1) (= (f15 ?v_0 ?v2) f1))))))
(assert (forall ((?v0 S3) (?v1 S3)) (=> (= (f3 (f4 f5 ?v0) ?v1) f1) (=> (= (f3 (f4 f5 ?v1) ?v0) f1) (= ?v0 ?v1)))))
(assert (forall ((?v0 S1) (?v1 S1)) (=> (= (f20 (f21 f22 ?v0) ?v1) f1) (=> (= (f20 (f21 f22 ?v1) ?v0) f1) (= (= ?v0 f1) (= ?v1 f1))))))
(assert (forall ((?v0 S2) (?v1 S2)) (=> (= (f15 (f23 f24 ?v0) ?v1) f1) (=> (= (f15 (f23 f24 ?v1) ?v0) f1) (= ?v0 ?v1)))))
(assert (forall ((?v0 S3) (?v1 S3) (?v2 S3)) (=> (= (f3 (f4 f5 ?v0) ?v1) f1) (=> (= ?v0 ?v2) (= (f3 (f4 f5 ?v2) ?v1) f1)))))
(assert (forall ((?v0 S1) (?v1 S1) (?v2 S1)) (=> (= (f20 (f21 f22 ?v0) ?v1) f1) (=> (= (= ?v0 f1) (= ?v2 f1)) (= (f20 (f21 f22 ?v2) ?v1) f1)))))
(assert (forall ((?v0 S2) (?v1 S2) (?v2 S2)) (=> (= (f15 (f23 f24 ?v0) ?v1) f1) (=> (= ?v0 ?v2) (= (f15 (f23 f24 ?v2) ?v1) f1)))))
(assert (forall ((?v0 S3) (?v1 S3) (?v2 S3)) (let ((?v_0 (f4 f5 ?v0))) (=> (= (f3 ?v_0 ?v1) f1) (=> (= ?v1 ?v2) (= (f3 ?v_0 ?v2) f1))))))
(assert (forall ((?v0 S1) (?v1 S1) (?v2 S1)) (let ((?v_0 (f21 f22 ?v0))) (=> (= (f20 ?v_0 ?v1) f1) (=> (= (= ?v1 f1) (= ?v2 f1)) (= (f20 ?v_0 ?v2) f1))))))
(assert (forall ((?v0 S2) (?v1 S2) (?v2 S2)) (let ((?v_0 (f23 f24 ?v0))) (=> (= (f15 ?v_0 ?v1) f1) (=> (= ?v1 ?v2) (= (f15 ?v_0 ?v2) f1))))))
(assert (forall ((?v0 S3) (?v1 S3) (?v2 S3)) (let ((?v_0 (f4 f5 ?v2))) (=> (= ?v0 ?v1) (=> (= (f3 ?v_0 ?v1) f1) (= (f3 ?v_0 ?v0) f1))))))
(assert (forall ((?v0 S1) (?v1 S1) (?v2 S1)) (let ((?v_0 (f21 f22 ?v2))) (=> (= (= ?v0 f1) (= ?v1 f1)) (=> (= (f20 ?v_0 ?v1) f1) (= (f20 ?v_0 ?v0) f1))))))
(assert (forall ((?v0 S2) (?v1 S2) (?v2 S2)) (let ((?v_0 (f23 f24 ?v2))) (=> (= ?v0 ?v1) (=> (= (f15 ?v_0 ?v1) f1) (= (f15 ?v_0 ?v0) f1))))))
(assert (forall ((?v0 S3) (?v1 S3) (?v2 S3)) (=> (= ?v0 ?v1) (=> (= (f3 (f4 f5 ?v1) ?v2) f1) (= (f3 (f4 f5 ?v0) ?v2) f1)))))
(assert (forall ((?v0 S1) (?v1 S1) (?v2 S1)) (=> (= (= ?v0 f1) (= ?v1 f1)) (=> (= (f20 (f21 f22 ?v1) ?v2) f1) (= (f20 (f21 f22 ?v0) ?v2) f1)))))
(assert (forall ((?v0 S2) (?v1 S2) (?v2 S2)) (=> (= ?v0 ?v1) (=> (= (f15 (f23 f24 ?v1) ?v2) f1) (= (f15 (f23 f24 ?v0) ?v2) f1)))))
(assert (forall ((?v0 S3) (?v1 S3)) (=> (= (f3 (f4 f5 ?v0) ?v1) f1) (= (= (f3 (f4 f5 ?v1) ?v0) f1) (= ?v1 ?v0)))))
(assert (forall ((?v0 S1) (?v1 S1)) (=> (= (f20 (f21 f22 ?v0) ?v1) f1) (= (= (f20 (f21 f22 ?v1) ?v0) f1) (= (= ?v1 f1) (= ?v0 f1))))))
(assert (forall ((?v0 S2) (?v1 S2)) (=> (= (f15 (f23 f24 ?v0) ?v1) f1) (= (= (f15 (f23 f24 ?v1) ?v0) f1) (= ?v1 ?v0)))))
(assert (forall ((?v0 S3) (?v1 S3)) (=> (= (f3 (f4 f5 ?v0) ?v1) f1) (= (f25 (f27 f29 ?v1) ?v0) ?v0))))
(assert (forall ((?v0 S3) (?v1 S3)) (=> (= (f3 (f4 f5 ?v0) ?v1) f1) (= (f25 (f27 f28 ?v1) ?v0) ?v1))))
(assert (forall ((?v0 S3) (?v1 S3)) (=> (= (f3 (f4 f5 ?v0) ?v1) f1) (= (f25 (f27 f29 ?v0) ?v1) ?v0))))
(assert (forall ((?v0 S3) (?v1 S3)) (=> (= (f3 (f4 f5 ?v0) ?v1) f1) (= (f25 (f27 f28 ?v0) ?v1) ?v1))))
(assert (forall ((?v0 S3) (?v1 S3) (?v2 S3)) (=> (= (f3 (f4 f5 ?v0) ?v1) f1) (= (f3 (f4 f5 (f25 (f27 f29 ?v2) ?v0)) ?v1) f1))))
(assert (forall ((?v0 S3) (?v1 S3) (?v2 S3)) (=> (= (f3 (f4 f5 ?v0) ?v1) f1) (= (f3 (f4 f5 (f25 (f27 f29 ?v0) ?v2)) ?v1) f1))))
(assert (forall ((?v0 S2) (?v1 S2) (?v2 S3)) (=> (= (f15 (f23 f24 ?v0) ?v1) f1) (= (f20 (f21 f22 (f3 ?v0 ?v2)) (f3 ?v1 ?v2)) f1))))
(assert (forall ((?v0 S3) (?v1 S3) (?v2 S3)) (let ((?v_0 (f4 f5 ?v0))) (=> (= (f3 ?v_0 ?v1) f1) (= (f3 ?v_0 (f25 (f27 f28 ?v2) ?v1)) f1)))))
(assert (forall ((?v0 S3) (?v1 S3) (?v2 S3)) (let ((?v_0 (f4 f5 ?v0))) (=> (= (f3 ?v_0 ?v1) f1) (= (f3 ?v_0 (f25 (f27 f28 ?v1) ?v2)) f1)))))
(assert (forall ((?v0 S3) (?v1 S3)) (=> (= ?v0 ?v1) (= (f3 (f4 f5 ?v0) ?v1) f1))))
(assert (forall ((?v0 S1) (?v1 S1)) (=> (= (= ?v0 f1) (= ?v1 f1)) (= (f20 (f21 f22 ?v0) ?v1) f1))))
(assert (forall ((?v0 S2) (?v1 S2)) (=> (= ?v0 ?v1) (= (f15 (f23 f24 ?v0) ?v1) f1))))
(assert (forall ((?v0 S3) (?v1 S3) (?v2 S3)) (let ((?v_0 (f27 f29 ?v0))) (= (f3 (f4 f5 (f25 (f27 f28 (f25 ?v_0 ?v1)) (f25 ?v_0 ?v2))) (f25 ?v_0 (f25 (f27 f28 ?v1) ?v2))) f1))))
(assert (forall ((?v0 S3) (?v1 S3) (?v2 S3)) (= (= (f3 (f4 f5 (f25 (f27 f29 ?v0) ?v1)) ?v2) f1) (or (= (f3 (f4 f5 ?v0) ?v2) f1) (= (f3 (f4 f5 ?v1) ?v2) f1)))))
(assert (forall ((?v0 S3) (?v1 S3) (?v2 S3)) (= (= (f3 (f4 f5 (f25 (f27 f28 ?v0) ?v1)) ?v2) f1) (and (= (f3 (f4 f5 ?v0) ?v2) f1) (= (f3 (f4 f5 ?v1) ?v2) f1)))))
(check-sat)
(exit)
